p cnf 116 102
10 -5 9 0
-6 12 13 14 11 0
-6 12 15 16 11 0
-6 12 17 18 11 0
10 -11 9 0
22 -5 21 0
22 -11 21 0
23 -8 21 0
27 -5 26 0
27 -11 26 0
28 -8 26 0
29 -20 26 0
-21 31 32 33 30 0
-21 31 13 34 30 0
-21 31 15 35 30 0
-21 31 17 36 30 0
29 -30 26 0
41 42 40 0
44 43 0
-40 -43 39 0
42 47 46 0
-39 45 -46 38 0
49 42 48 0
-48 50 51 52 38 0
37 -38 26 0
56 -5 55 0
56 -11 55 0
57 -8 55 0
58 -20 55 0
58 -30 55 0
59 -25 55 0
-26 61 13 62 60 0
-26 61 15 63 60 0
-26 61 17 64 60 0
59 -60 55 0
65 -38 55 0
-55 66 32 67 54 0
53 -54 26 0
-55 69 13 70 68 0
-55 69 15 71 68 0
-55 69 17 72 68 0
53 -68 26 0
-26 73 32 74 25 0
24 -25 21 0
24 -60 21 0
75 -38 21 0
76 -54 21 0
76 -68 21 0
-21 77 32 78 20 0
19 -20 9 0
19 -30 9 0
79 -25 9 0
79 -60 9 0
80 -38 9 0
81 -54 9 0
81 -68 9 0
-9 82 13 83 8 0
-9 82 15 84 8 0
-9 82 17 85 8 0
7 -8 6 0
86 -20 6 0
86 -30 6 0
87 -25 6 0
87 -60 6 0
88 -38 6 0
89 -54 6 0
89 -68 6 0
-6 90 32 91 5 0
4 -5 3 0
4 -11 3 0
92 -8 3 0
93 -20 3 0
93 -30 3 0
94 -25 3 0
94 -60 3 0
95 -38 3 0
96 -54 3 0
96 -68 3 0
2 -3 1 0
100 -5 99 0
100 -11 99 0
101 -8 99 0
102 -20 99 0
102 -30 99 0
103 -25 99 0
103 -60 99 0
104 -38 99 0
105 -54 99 0
105 -68 99 0
98 -99 97 0
109 -5 108 0
109 -11 108 0
110 -8 108 0
111 -20 108 0
111 -30 108 0
112 -25 108 0
112 -60 108 0
113 -38 108 0
114 -54 108 0
114 -68 108 0
107 -108 106 0
116 -25 115 0
0
